\ENCODING=ISO-8859-1
\Problem name: IloCplex

Minimize
 obj: 72 y(0) + 83 y(1) + 99 y(2) + 116 y(3) + 98 y(4) + 127 y(5) + 161 y(6)
      + 87 y(7) + 121 y(8) + 125 y(9) + 90 y(10) + 74 y(11) + 77 y(12)
      + 61 y(13) + 62 y(14) + 14 y(15) + 94 y(16) + 83 y(17) + 99 y(18)
      + 125 y(19) + 128 y(20) + 71 y(21) + 55 y(22) + 90 y(23) + 74 y(24)
      + 67 y(25) + 44 y(26) + 14 y(27) + 61 y(28) + 98 y(29) + 130 y(30)
      + 109 y(31) + 127 y(32) + 87 y(33) + 100 y(34) + 121 y(35) + 161 y(36)
Subject To
 c1:  y(16)  = 1
 c2:  y(16)  = 1
 c3:  y(16)  = 1
 c4:  y(1) + y(2) + y(3) + y(17)  = 1
 c5:  y(1) + y(2) + y(3) + y(17)  = 1
 c6:  y(1) + y(2) + y(3) + y(17)  = 1
 c7:  y(2) + y(3) + y(18)  = 1
 c8:  y(2) + y(3) + y(18)  = 1
 c9:  y(2) + y(3) + y(18)  = 1
 c10: y(9) + y(19)  = 1
 c11: y(9) + y(19)  = 1
 c12: y(9) + y(19)  = 1
 c13: y(20)  = 1
 c14: y(20)  = 1
 c15: y(20)  = 1
 c16: y(0) + y(21)  = 1
 c17: y(0) + y(21)  = 1
 c18: y(0) + y(21)  = 1
 c19: y(22)  = 1
 c20: y(22)  = 1
 c21: y(22)  = 1
 c22: y(10) + y(23)  = 1
 c23: y(10) + y(23)  = 1
 c24: y(10) + y(23)  = 1
 c25: y(11) + y(12) + y(24)  = 1
 c26: y(11) + y(12) + y(24)  = 1
 c27: y(11) + y(12) + y(24)  = 1
 c28: y(12) + y(25)  = 1
 c29: y(12) + y(25)  = 1
 c30: y(12) + y(25)  = 1
 c31: y(14) + y(26)  = 1
 c32: y(14) + y(26)  = 1
 c33: y(14) + y(26)  = 1
 c34: y(0) + y(15) + y(27)  = 1
 c35: y(0) + y(15) + y(27)  = 1
 c36: y(0) + y(15) + y(27)  = 1
 c37: y(13) + y(14) + y(28)  = 1
 c38: y(13) + y(14) + y(28)  = 1
 c39: y(13) + y(14) + y(28)  = 1
 c40: y(4) + y(29)  = 1
 c41: y(4) + y(29)  = 1
 c42: y(4) + y(29)  = 1
 c43: y(30)  = 1
 c44: y(30)  = 1
 c45: y(30)  = 1
 c46: y(3) + y(31)  = 1
 c47: y(3) + y(31)  = 1
 c48: y(3) + y(31)  = 1
 c49: y(5) + y(32)  = 1
 c50: y(5) + y(32)  = 1
 c51: y(5) + y(32)  = 1
 c52:  = 1
 c53:  = 1
 c54:  = 1
 c55: y(7) + y(33)  = 1
 c56: y(7) + y(33)  = 1
 c57: y(7) + y(33)  = 1
 c58: y(34)  = 1
 c59: y(34)  = 1
 c60: y(34)  = 1
 c61: y(8) + y(35)  = 1
 c62: y(8) + y(35)  = 1
 c63: y(8) + y(35)  = 1
 c64: y(6) + y(36)  = 1
 c65: y(6) + y(36)  = 1
 c66: y(6) + y(36)  = 1
 c67: y(0) + y(1) + y(2) + y(3) + y(4) + y(5) + y(6) + y(7) + y(8) + y(9)
      + y(10) + y(11) + y(12) + y(13) + y(14) + y(15) + y(16) + y(17) + y(18)
      + y(19) + y(20) + y(21) + y(22) + y(23) + y(24) + y(25) + y(26) + y(27)
      + y(28) + y(29) + y(30) + y(31) + y(32) + y(33) + y(34) + y(35) + y(36)
      >= 2
 c68: y(0) + y(1) + y(2) + y(3) + y(4) + y(5) + y(6) + y(7) + y(8) + y(9)
      + y(10) + y(11) + y(12) + y(13) + y(14) + y(15) + y(16) + y(17) + y(18)
      + y(19) + y(20) + y(21) + y(22) + y(23) + y(24) + y(25) + y(26) + y(27)
      + y(28) + y(29) + y(30) + y(31) + y(32) + y(33) + y(34) + y(35) + y(36)
      <= 22
Bounds
 0 <= y(0) <= 1
 0 <= y(1) <= 1
 0 <= y(2) <= 1
 0 <= y(3) <= 1
 0 <= y(4) <= 1
 0 <= y(5) <= 1
 0 <= y(6) <= 1
 0 <= y(7) <= 1
 0 <= y(8) <= 1
 0 <= y(9) <= 1
 0 <= y(10) <= 1
 0 <= y(11) <= 1
 0 <= y(12) <= 1
 0 <= y(13) <= 1
 0 <= y(14) <= 1
 0 <= y(15) <= 1
 0 <= y(16) <= 1
 0 <= y(17) <= 1
 0 <= y(18) <= 1
 0 <= y(19) <= 1
 0 <= y(20) <= 1
 0 <= y(21) <= 1
 0 <= y(22) <= 1
 0 <= y(23) <= 1
 0 <= y(24) <= 1
 0 <= y(25) <= 1
 0 <= y(26) <= 1
 0 <= y(27) <= 1
 0 <= y(28) <= 1
 0 <= y(29) <= 1
 0 <= y(30) <= 1
 0 <= y(31) <= 1
 0 <= y(32) <= 1
 0 <= y(33) <= 1
 0 <= y(34) <= 1
 0 <= y(35) <= 1
 0 <= y(36) <= 1
Binaries
 y(0)  y(1)  y(2)  y(3)  y(4)  y(5)  y(6)  y(7)  y(8)  y(9)  y(10)  y(11) 
 y(12)  y(13)  y(14)  y(15)  y(16)  y(17)  y(18)  y(19)  y(20)  y(21)  y(22) 
 y(23)  y(24)  y(25)  y(26)  y(27)  y(28)  y(29)  y(30)  y(31)  y(32)  y(33) 
 y(34)  y(35)  y(36) 
End
